\ This file has been generated by DOcplex
\ ENCODING=ISO-8859-1
\Problem name: telephone_production

Maximize
 obj: 12 desk + 20 cell
Subject To
 c1: desk >= 100
 c2: cell >= 100
 c3: 0.200000000000 desk + 0.400000000000 cell <= 400
 c4: 0.500000000000 desk + 0.400000000000 cell <= 490

Bounds
End
